Linux optc-09-13 4.15.0-58-generic #64-Ubuntu SMP Tue Aug 6 11:12:41 UTC 2019 x86_64 x86_64 x86_64 GNU/Linux

top - 19:20:20 up 1 day,  9:21,  0 users,  load average: 0,37, 0,82, 0,94
Tasks: 288 gesamt,   1 laufend, 148 schlafend,   0 gestoppt,   0 Zombie
%CPU(s):  7,6 be,  0,4 sy,  0,0 ni, 92,0 un,  0,0 wa,  0,0 hi,  0,0 si,  0,0 st
KiB Spch : 97514992 gesamt, 95334584 frei,   651184 belegt,  1529228 Puff/Cache
KiB Swap:  8388604 gesamt,  8388604 frei,        0 belegt. 96121008 verfü Spch 

  PID USER      PR  NI    VIRT    RES    SHR S  %CPU %MEM     ZEIT+ BEFEHL
    1 root      20   0  233852   9276   6548 S   0,0  0,0   0:10.97 systemd
    2 root      20   0       0      0      0 S   0,0  0,0   0:00.12 kthreadd
    4 root       0 -20       0      0      0 I   0,0  0,0   0:00.00 kworker/0:+
    6 root      20   0       0      0      0 I   0,0  0,0   0:00.00 kworker/u3+
    7 root       0 -20       0      0      0 I   0,0  0,0   0:00.00 mm_percpu_+
    8 root      20   0       0      0      0 S   0,0  0,0   0:00.03 ksoftirqd/0
    9 root      20   0       0      0      0 I   0,0  0,0   0:13.21 rcu_sched
   10 root      20   0       0      0      0 I   0,0  0,0   0:00.00 rcu_bh

hard time limit: 04:10:00
hard mem limit: 55100

SLURM jobID: 2182442

@01 /nfs/optimi/kombadon/IP/miplib2017/supportcase22.mps.gz ===========
-----------------------------
Do 22. Aug 19:20:20 CEST 2019
-----------------------------
@03 1566494420
@05 7200
SCIP version 6.0.0 [precision: 8 byte] [memory: block] [mode: optimized] [LP solver: CPLEX 12.8.0.0] [GitHash: 41ab6e0014]
Copyright (C) 2002-2018 Konrad-Zuse-Zentrum fuer Informationstechnik Berlin (ZIB)

External codes: 
  Readline 7.0         GNU library for command line editing (gnu.org/s/readline)
  CPLEX 12.8.0.0       Linear Programming Solver developed by IBM (www.cplex.com)
  CppAD 20180000.0     Algorithmic Differentiation of C++ algorithms developed by B. Bell (www.coin-or.org/CppAD)
  ZLIB 1.2.11          General purpose compression library by J. Gailly and M. Adler (zlib.net)
  GMP 6.1.2            GNU Multiple Precision Arithmetic Library developed by T. Granlund (gmplib.org)
  bliss 0.73p          Computing Graph Automorphism Groups by T. Junttila and P. Kaski (http://www.tcs.hut.fi/Software/bliss/)

user parameter file <scip.set> not found - using default parameters

SCIP> 
SCIP> set load /home/optimi/bzfhende/opti/scip-opti/check/../settings/enable_treeeprofile.set
loaded parameter file </home/optimi/bzfhende/opti/scip-opti/check/../settings/enable_treeprofile.set>
SCIP> set limits time 7200
limits/time = 7200
SCIP> set limits nodes 2100000000
limits/nodes = 2100000000
SCIP> set limits memory 50000
limits/memory = 50000
SCIP> set lp advanced threads 1
lp/threads = 1
SCIP> set timing clocktype 1
timing/clocktype = 1
SCIP> set display freq 10000
display/freq = 10000
SCIP> set memory savefac 1.0
memory/savefac = 1
SCIP> set save /home/optimi/bzfhende/opti/scip-opti/check/treesize.estimation.jouurnal.3/bzfhende.miplib2017.218_supportcase22.scip.M640.enable_treeprofile.set
saved parameter file </home/optimi/bzfhende/opti/scip-opti/check/treesize.estimation.journal.3/bzfhende.miplib2017.218_supportcase22.scip.M640.enable_treeprofile.set>
SCIP> read /nfs/optimi/kombadon/IP/miplib2017/supportcase22.mps.gz

read problem </nfs/optimi/kombadon/IP/miplib2017/supportcase22.mps.gz>
============

original problem has 7129 variables (7129 bin, 0 int, 0 impl, 0 cont) and 260602 constraints
SCIP> display parameters

number of parameters = 2448
non-default parameter settings:
display/freq = 10000
limits/time = 7200
limits/nodes = 2100000000
limits/memory = 50000
lp/threads = 1
memory/savefac = 1
presolving/maxrestarts = 0
estimates/profile/enabled = TRUE
estimates/profile/maxdepthfactor = 10
estimates/profile/freq = 0

SCIP> optimize

Activating tree profile data collection
presolving:
(round 1, fast)       640 del vars, 640 del conss, 0 add conss, 0 chg bounds, 232540 chg sides, 232540 chg coeffs, 0 upgd conss, 0 impls, 3460 clqs
(round 2, exhaustive) 640 del vars, 640 del conss, 0 add conss, 0 chg bounds, 232540 chg sides, 232540 chg coeffs, 259962 upgd conss, 0 impls, 3460 clqs
(round 3, medium)     640 del vars, 925 del conss, 2980 add conss, 0 chg bounds, 232540 chg sides, 232540 chg coeffs, 259962 upgd conss, 0 impls, 3460 clqs
(round 4, exhaustive) 640 del vars, 4190 del conss, 3265 add conss, 0 chg bounds, 232540 chg sides, 232540 chg coeffs, 259962 upgd conss, 0 impls, 3460 clqs
   (7.1s) probing: 227/6489 (3.5%) - 0 fixings, 0 aggregations, 1180 implications, 0 bound changes
   (7.1s) probing aborted: 50/50 successive totally useless probings
presolving (5 rounds: 5 fast, 4 medium, 3 exhaustive):
 640 deleted vars, 4250 deleted constraints, 3265 added constraints, 0 tightened bounds, 0 added holes, 232540 changed sides, 232600 changed coefficients
 0 implications, 4640 cliques
presolved problem has 6489 variables (6489 bin, 0 int, 0 impl, 0 cont) and 259617 constraints
      6 constraints of type <knapsack>
    285 constraints of type <and>
 259326 constraints of type <logicor>
transformed objective value is always integral (scale: 0.2)
Presolving Time: 7.32

 time | node  | left  |LP iter|LP it/n| mem |mdpt |frac |vars |cons |cols |rows |cuts |confs|strbr|  dualbound   | primalbound  |  gap   
 13.4s|     1 |     0 |  3895 |     - |1025M|   0 |  62 |6489 | 259k|6489 | 259k|   0 | 122 |   0 | 0.000000e+00 |      --      |    Inf 
  128s|     1 |     0 | 25467 |     - |1062M|   0 |  57 |6489 | 259k|6489 | 259k|   1 | 122 |   0 | 0.000000e+00 |      --      |    Inf 
  339s|     1 |     0 | 45393 |     - |1089M|   0 | 189 |6489 | 259k|6489 | 259k|   4 | 122 |   0 | 9.374036e-02 |      --      |    Inf 
  403s|     1 |     0 | 48726 |     - |1118M|   0 |  65 |6489 | 259k|6489 | 259k|  22 | 124 |   0 | 1.125000e-01 |      --      |    Inf 
  405s|     1 |     0 | 48727 |     - |1146M|   0 |  65 |6489 | 259k|6489 | 259k|  23 | 124 |   0 | 1.125000e-01 |      --      |    Inf 
  432s|     1 |     0 | 50766 |     - |1173M|   0 |  65 |6489 | 259k|6489 | 259k|  25 | 124 |   0 | 1.285714e-01 |      --      |    Inf 
  711s|     1 |     0 | 70169 |     - |1202M|   0 |1247 |6489 | 259k|6489 | 259k|  26 | 124 |   0 | 1.397868e-01 |      --      |    Inf 
  748s|     1 |     0 | 70644 |     - |1234M|   0 |  66 |6489 | 259k|6489 | 260k| 139 | 126 |   0 | 1.687500e-01 |      --      |    Inf 
  892s|     1 |     0 | 80063 |     - |1262M|   0 | 402 |6489 | 259k|6489 | 260k| 141 | 126 |   0 | 2.646888e-01 |      --      |    Inf 
  927s|     1 |     0 | 80654 |     - |1290M|   0 |   8 |6489 | 259k|6489 | 260k| 171 | 127 |   0 | 3.375000e-01 |      --      |    Inf 
 1114s|     1 |     0 | 92502 |     - |1319M|   0 |2400 |6489 | 259k|6489 | 260k| 173 | 127 |   0 | 3.656156e-01 |      --      |    Inf 
 1277s|     1 |     0 |101269 |     - |1348M|   0 |1985 |6489 | 259k|6489 | 260k| 299 | 128 |   0 | 3.849580e-01 |      --      |    Inf 
 1404s|     1 |     0 |108041 |     - |1379M|   0 |1783 |6489 | 259k|6489 | 260k| 410 | 130 |   0 | 3.911806e-01 |      --      |    Inf 
 1513s|     1 |     0 |113687 |     - |1408M|   0 |1862 |6489 | 259k|6489 | 260k| 491 | 130 |   0 | 3.931707e-01 |      --      |    Inf 
 1587s|     1 |     0 |117188 |     - |1437M|   0 |1736 |6489 | 259k|6489 | 260k| 573 | 131 |   0 | 3.939321e-01 |      --      |    Inf 
 time | node  | left  |LP iter|LP it/n| mem |mdpt |frac |vars |cons |cols |rows |cuts |confs|strbr|  dualbound   | primalbound  |  gap   
 1645s|     1 |     0 |119701 |     - |1466M|   0 |2035 |6489 | 259k|6489 | 260k| 634 | 135 |   0 | 3.941662e-01 |      --      |    Inf 
 1758s|     1 |     0 |121726 |     - |1495M|   0 |2119 |6489 | 259k|6489 | 260k| 707 | 136 |   0 | 3.943169e-01 |      --      |    Inf 
 1878s|     1 |     0 |124011 |     - |1523M|   0 |1922 |6489 | 259k|6489 | 260k| 740 | 137 |   0 | 3.948616e-01 |      --      |    Inf 
 2036s|     1 |     0 |128745 |     - |1552M|   0 |3346 |6489 | 259k|6489 | 260k| 763 | 138 |   0 | 4.473776e-01 |      --      |    Inf 
 2097s|     1 |     0 |131611 |     - |1580M|   0 |2971 |6489 | 259k|6489 | 260k| 840 | 139 |   0 | 4.554740e-01 |      --      |    Inf 
 2212s|     1 |     0 |133517 |     - |1609M|   0 |2543 |6489 | 259k|6489 | 260k| 913 | 140 |   0 | 4.555850e-01 |      --      |    Inf 
 2351s|     1 |     0 |137128 |     - |1612M|   0 |2183 |6489 | 259k|6489 | 260k| 955 | 141 |   0 | 4.565605e-01 |      --      |    Inf 
 2598s|     1 |     0 |143022 |     - |1615M|   0 |2906 |6489 | 259k|6489 | 260k| 980 | 142 |   0 | 4.695419e-01 |      --      |    Inf 
 2876s|     1 |     0 |154997 |     - |1618M|   0 |4670 |6489 | 259k|6489 | 260k|1042 | 146 |   0 | 5.708277e-01 |      --      |    Inf 
 2986s|     1 |     0 |160822 |     - |1621M|   0 |4813 |6489 | 259k|6489 | 261k|1159 | 148 |   0 | 5.877431e-01 |      --      |    Inf 
 3107s|     1 |     0 |167392 |     - |1625M|   0 |5022 |6489 | 259k|6489 | 261k|1280 | 150 |   0 | 6.007454e-01 |      --      |    Inf 
 3182s|     1 |     0 |171283 |     - |1628M|   0 |5095 |6489 | 259k|6489 | 261k|1394 | 151 |   0 | 6.021175e-01 |      --      |    Inf 
 3388s|     1 |     0 |183320 |     - |1631M|   0 |5029 |6489 | 259k|6489 | 261k|1496 | 152 |   0 | 6.649936e-01 |      --      |    Inf 
 3619s|     1 |     0 |188683 |     - |1634M|   0 |4947 |6489 | 259k|6489 | 261k|1667 | 154 |   0 | 6.690068e-01 |      --      |    Inf 
 3741s|     1 |     0 |191284 |     - |1637M|   0 |4913 |6489 | 259k|6489 | 261k|1699 | 156 |   0 | 6.705878e-01 |      --      |    Inf 
 time | node  | left  |LP iter|LP it/n| mem |mdpt |frac |vars |cons |cols |rows |cuts |confs|strbr|  dualbound   | primalbound  |  gap   
 3764s|     1 |     0 |191746 |     - |1641M|   0 |4876 |6489 | 259k|6489 | 261k|1717 | 158 |   0 | 6.705991e-01 |      --      |    Inf 
 3849s|     1 |     0 |191887 |     - |1644M|   0 |4885 |6489 | 259k|6489 | 261k|1719 | 159 |   0 | 6.705997e-01 |      --      |    Inf 
SCIP nodes: 1 Estimation: -1
 7200s|     1 |     2 |235728 |     - |1655M|   0 |   - |6489 | 259k|6489 | 261k|1719 | 164 |   0 | 6.705997e-01 |      --      |    Inf 

SCIP Status        : solving was interrupted [time limit reached]
Solving Time (sec) : 7200.08
Solving Nodes      : 1
Primal Bound       : +1.00000000000000e+20 (0 solutions)
Dual Bound         : +6.70599735950723e-01
Gap                : infinite

SCIP> display statistics

SCIP Status        : solving was interrupted [time limit reached]
Total Time         :    7201.21
  solving          :    7200.08
  presolving       :       7.32 (included in solving)
  reading          :       1.13
  copying          :       0.00 (0 times copied the problem)
Original Problem   :
  Problem name     : supportcase22
  Variables        : 7129 (7129 binary, 0 integer, 0 implicit integer, 0 continuous)
  Constraints      : 260602 initial, 260602 maximal
  Objective        : minimize, 2280 non-zeros (abs.min = 1, abs.max = 7)
Presolved Problem  :
  Problem name     : t_supportcase22
  Variables        : 6489 (6489 binary, 0 integer, 0 implicit integer, 0 continuous)
  Constraints      : 259617 initial, 259758 maximal
  Objective        : minimize, 2280 non-zeros (abs.min = 5, abs.max = 35)
Presolvers         :   ExecTime  SetupTime  Calls  FixedVars   AggrVars   ChgTypes  ChgBounds   AddHoles    DelCons    AddCons   ChgSides   ChgCoefs
  boundshift       :       0.00       0.00      0          0          0          0          0          0          0          0          0          0
  convertinttobin  :       0.00       0.00      0          0          0          0          0          0          0          0          0          0
  domcol           :       0.14       0.00      1          0          0          0          0          0          0          0          0          0
  dualagg          :       0.00       0.00      0          0          0          0          0          0          0          0          0          0
  dualcomp         :       0.00       0.00      0          0          0          0          0          0          0          0          0          0
  dualinfer        :       0.00       0.00      0          0          0          0          0          0          0          0          0          0
  gateextraction   :       0.41       0.00      1          0          0          0          0          0       3265        285          0          0
  implics          :       0.00       0.00      4          0          0          0          0          0          0          0          0          0
  inttobinary      :       0.00       0.00      0          0          0          0          0          0          0          0          0          0
  qpkktref         :       0.00       0.00      0          0          0          0          0          0          0          0          0          0
  redvub           :       0.00       0.00      0          0          0          0          0          0          0          0          0          0
  sparsify         :       0.14       0.00      1          0          0          0          0          0          0          0          0          0
  stuffing         :       0.00       0.00      0          0          0          0          0          0          0          0          0          0
  symbreak         :       0.00       0.00      0          0          0          0          0          0          0          0          0          0
  symmetry         :       0.00       0.00      0          0          0          0          0          0          0          0          0          0
  trivial          :       0.00       0.00      5          0          0          0          0          0          0          0          0          0
  tworowbnd        :       0.00       0.00      0          0          0          0          0          0          0          0          0          0
  dualfix          :       0.00       0.00      5          0          0          0          0          0          0          0          0          0
  genvbounds       :       0.00       0.00      0          0          0          0          0          0          0          0          0          0
  orbitalfixing    :       0.00       0.00      0          0          0          0          0          0          0          0          0          0
  probing          :       0.22       0.00      1          0          0          0          0          0          0          0          0          0
  pseudoobj        :       0.00       0.00      1          0          0          0          0          0          0          0          0          0
  vbounds          :       0.00       0.00      1          0          0          0          0          0          0          0          0          0
  knapsack         :       0.01       0.00      7          0          0          0          0          0        285       2980          0          0
  setppc           :       0.01       0.00      3          0          0          0          0          0          0          0          0          0
  and              :       0.01       0.00      2          0          0          0          0          0          0          0          0          0
  linear           :       1.55       0.07      3          0        640          0          0          0        640          0     232540     232540
  logicor          :       4.06       0.45      7          0          0          0          0          0         60          0          0         60
  benders          :       0.00       0.00      0          0          0          0          0          0          0          0          0          0
  components       :       0.10       0.00      1          0          0          0          0          0          0          0          0          0
  root node        :          -          -      -          0          -          -          0          -          -          -          -          -
Constraints        :     Number  MaxNumber  #Separate #Propagate    #EnfoLP    #EnfoRelax  #EnfoPS    #Check   #ResProp    Cutoffs    DomReds       Cuts    Applied      Conss   Children
  benderslp        :          0          0          0          0          0          0          1         15          0          0          0          0          0          0          0
  integral         :          0          0          0          0          0          0          0         15          0          0          0          0          0          0          0
  knapsack         :          6          6         32      21809          0          0          1         11         45          1          0          2          0          0          0
  setppc           :          0+         5         32      15931          0          0          0          0          0          0          0          0          0          0          0
  and              :        285        285         32      21859          0          0          1          9        722         53          0       3678       1652          0          0
  logicor          :     259326+    259462         32      19403          0          0          1          2        828         60          0         32         12          0          0
  benders          :          0          0          0          0          0          0          1          0          0          0          0          0          0          0          0
  countsols        :          0          0          0          0          0          0          1          0          0          0          0          0          0          0          0
  components       :          0          0          0          0          0          0          0          0          0          0          0          0          0          0          0
Constraint Timings :  TotalTime  SetupTime   Separate  Propagate     EnfoLP     EnfoPS     EnfoRelax   Check    ResProp    SB-Prop
  benderslp        :       0.00       0.00       0.00       0.00       0.00       0.00       0.00       0.00       0.00       0.00
  integral         :       0.00       0.00       0.00       0.00       0.00       0.00       0.00       0.00       0.00       0.00
  knapsack         :       0.01       0.00       0.00       0.01       0.00       0.00       0.00       0.00       0.00       0.00
  setppc           :       0.00       0.00       0.00       0.00       0.00       0.00       0.00       0.00       0.00       0.00
  and              :       0.14       0.00       0.00       0.14       0.00       0.00       0.00       0.00       0.00       0.00
  logicor          :       2.52       0.45       1.32       0.68       0.00       0.07       0.00       0.00       0.00       0.00
  benders          :       0.00       0.00       0.00       0.00       0.00       0.00       0.00       0.00       0.00       0.00
  countsols        :       0.00       0.00       0.00       0.00       0.00       0.00       0.00       0.00       0.00       0.00
  components       :       0.00       0.00       0.00       0.00       0.00       0.00       0.00       0.00       0.00       0.00
Propagators        : #Propagate   #ResProp    Cutoffs    DomReds
  dualfix          :          1          0          0          0
  genvbounds       :          0          0          0          0
  nlobbt           :          0          0          0          0
  obbt             :          0          0          0          0
  orbitalfixing    :          0          0          0          0
  probing          :          0          0          0          0
  pseudoobj        :         34          0          0          0
  redcost          :         33          0          0          0
  rootredcost      :          0          0          0          0
  vbounds          :      21155          0          0          0
Propagator Timings :  TotalTime  SetupTime   Presolve  Propagate    ResProp    SB-Prop
  dualfix          :       0.00       0.00       0.00       0.00       0.00       0.00
  genvbounds       :       0.00       0.00       0.00       0.00       0.00       0.00
  nlobbt           :       0.00       0.00       0.00       0.00       0.00       0.00
  obbt             :       0.00       0.00       0.00       0.00       0.00       0.00
  orbitalfixing    :       0.01       0.00       0.00       0.01       0.00       0.00
  probing          :       0.22       0.00       0.22       0.00       0.00       0.00
  pseudoobj        :       0.01       0.00       0.00       0.01       0.00       0.00
  redcost          :       0.01       0.00       0.00       0.01       0.00       0.00
  rootredcost      :       0.00       0.00       0.00       0.00       0.00       0.00
  vbounds          :       0.00       0.00       0.00       0.00       0.00       0.00
Conflict Analysis  :       Time      Calls    Success    DomReds  Conflicts   Literals    Reconvs ReconvLits   Dualrays   Nonzeros   LP Iters   (pool size: [10000,10000])
  propagation      :       0.00        112        112          -        271       38.2          9       40.9          -          -          -
  infeasible LP    :       0.00          0          0          -          0        0.0          0        0.0          0        0.0          0
  bound exceed. LP :       0.00          0          0          -          0        0.0          0        0.0          0        0.0          0
  strong branching :       0.00          0          0          -          0        0.0          0        0.0          -          -          0
  pseudo solution  :       0.00          0          0          -          0        0.0          0        0.0          -          -          -
  applied globally :       0.00          -          -          0        164       21.0          -          -          0          -          -
  applied locally  :          -          -          -          0          0        0.0          -          -          0          -          -
Separators         :   ExecTime  SetupTime      Calls    Cutoffs    DomReds       Cuts    Applied      Conss
  cut pool         :       0.00                    60          -          -         65          -          -    (maximal pool size: 271)
  aggregation      :     459.29       0.00         32          0          0          0          0          0
  cgmip            :       0.00       0.00          0          0          0          0          0          0
  clique           :       0.04       0.00         32          0          0          0          0          0
  closecuts        :       0.00       0.00          0          0          0          0          0          0
  cmir             :       0.00       0.00          0          0          0          0          0          0
  convexproj       :       0.00       0.00          0          0          0          0          0          0
  disjunctive      :       0.00       0.00          0          0          0          0          0          0
  eccuts           :       0.00       0.00          0          0          0          0          0          0
  flowcover        :       0.00       0.00          0          0          0          0          0          0
  gauge            :       0.00       0.00          0          0          0          0          0          0
  gomory           :      14.55       0.00         10          0          0          0          0          0
  impliedbounds    :       0.01       0.00         32          0          0          0         41          0
  intobj           :       0.00       0.00          0          0          0          0          0          0
  mcf              :       0.15       0.00          1          0          0          0          0          0
  oddcycle         :       0.00       0.00          0          0          0          0          0          0
  rapidlearning    :       0.00       0.00          0          0          0          0          0          0
  strongcg         :      21.37       0.00         20          0          0          0          0          0
  zerohalf         :       3.19       0.00         20          0          0          0         14          0
Pricers            :   ExecTime  SetupTime      Calls       Vars
  problem variables:       0.00          -          0          0
Branching Rules    :   ExecTime  SetupTime   BranchLP  BranchExt   BranchPS    Cutoffs    DomReds       Cuts      Conss   Children
  allfullstrong    :       0.00       0.00          0          0          0          0          0          0          0          0
  cloud            :       0.00       0.00          0          0          0          0          0          0          0          0
  distribution     :       0.00       0.00          0          0          0          0          0          0          0          0
  fullstrong       :       0.00       0.00          0          0          0          0          0          0          0          0
  inference        :       0.00       0.00          0          0          1          0          0          0          0          2
  leastinf         :       0.00       0.00          0          0          0          0          0          0          0          0
  lookahead        :       0.00       0.00          0          0          0          0          0          0          0          0
  mostinf          :       0.00       0.00          0          0          0          0          0          0          0          0
  multaggr         :       0.00       0.00          0          0          0          0          0          0          0          0
  nodereopt        :       0.00       0.00          0          0          0          0          0          0          0          0
  pscost           :       0.00       0.00          0          0          0          0          0          0          0          0
  random           :       0.00       0.00          0          0          0          0          0          0          0          0
  relpscost        :       0.00       0.00          0          0          0          0          0          0          0          0
Primal Heuristics  :   ExecTime  SetupTime      Calls      Found       Best
  LP solutions     :       0.00          -          -          0          0
  relax solutions  :       0.00          -          -          0          0
  pseudo solutions :       0.00          -          -          0          0
  strong branching :       0.00          -          -          0          0
  actconsdiving    :       0.00       0.00          0          0          0
  alns             :       0.00       0.00          0          0          0
  bound            :       0.00       0.00          0          0          0
  clique           :       0.38       0.00          1          0          0
  coefdiving       :       0.00       0.00          0          0          0
  completesol      :       0.00       0.00          0          0          0
  conflictdiving   :       0.00       0.00          0          0          0
  crossover        :       0.00       0.00          0          0          0
  dins             :       0.00       0.00          0          0          0
  distributiondivin:       0.00       0.00          0          0          0
  dualval          :       0.00       0.00          0          0          0
  farkasdiving     :    3334.92       0.00          1          0          0
  feaspump         :     109.58       0.00          1          0          0
  fixandinfer      :       0.00       0.00          0          0          0
  fracdiving       :       0.00       0.00          0          0          0
  gins             :       0.00       0.00          0          0          0
  guideddiving     :       0.00       0.00          0          0          0
  indicator        :       0.00       0.00          0          0          0
  intdiving        :       0.00       0.00          0          0          0
  intshifting      :       0.00       0.00          0          0          0
  linesearchdiving :       0.00       0.00          0          0          0
  localbranching   :       0.00       0.00          0          0          0
  locks            :       0.06       0.00          1          0          0
  lpface           :       0.00       0.00          0          0          0
  mpec             :       0.00       0.00          0          0          0
  multistart       :       0.00       0.00          0          0          0
  mutation         :       0.00       0.00          0          0          0
  nlpdiving        :       0.00       0.00          0          0          0
  objpscostdiving  :       0.00       0.00          0          0          0
  octane           :       0.00       0.00          0          0          0
  ofins            :       0.00       0.00          0          0          0
  oneopt           :       0.00       0.00          0          0          0
  proximity        :       0.00       0.00          0          0          0
  pscostdiving     :       0.00       0.00          0          0          0
  randrounding     :       1.17       0.00         32          0          0
  rens             :       0.00       0.00          0          0          0
  reoptsols        :       0.00       0.00          0          0          0
  repair           :       0.00       0.00          0          0          0
  rins             :       0.00       0.00          0          0          0
  rootsoldiving    :       0.00       0.00          0          0          0
  rounding         :       0.30       0.00         32          0          0
  shiftandpropagate:       0.17       0.00          1          0          0
  shifting         :       1.78       0.00         32          0          0
  simplerounding   :       0.00       0.00          0          0          0
  subnlp           :       0.00       0.00          0          0          0
  trivial          :       0.02       0.00          2          0          0
  trivialnegation  :       0.00       0.00          0          0          0
  trysol           :       0.00       0.00          0          0          0
  twoopt           :       0.00       0.00          0          0          0
  undercover       :       0.00       0.00          1          0          0
  vbounds          :       0.26       0.00          1          0          0
  veclendiving     :       0.00       0.00          0          0          0
  zeroobj          :       0.00       0.00          0          0          0
  zirounding       :       0.03       0.00          1          0          0
  other solutions  :          -          -          -          0          -
Diving Statistics  :      Calls      Nodes   LP Iters Backtracks  Conflicts   MinDepth   MaxDepth   AvgDepth  RoundSols  NLeafSols  MinSolDpt  MaxSolDpt  AvgSolDpt
  actconsdiving    :          0          -          -          -          -          -          -          -          -          -          -          -          -
  coefdiving       :          0          -          -          -          -          -          -          -          -          -          -          -          -
  conflictdiving   :          0          -          -          -          -          -          -          -          -          -          -          -          -
  distributiondivin:          0          -          -          -          -          -          -          -          -          -          -          -          -
  farkasdiving     :          1         94      43841          0          0         95         95       95.0          0          -          -          -          -
  fracdiving       :          0          -          -          -          -          -          -          -          -          -          -          -          -
  guideddiving     :          0          -          -          -          -          -          -          -          -          -          -          -          -
  linesearchdiving :          0          -          -          -          -          -          -          -          -          -          -          -          -
  pscostdiving     :          0          -          -          -          -          -          -          -          -          -          -          -          -
  veclendiving     :          0          -          -          -          -          -          -          -          -          -          -          -          -
Neighborhoods      :      Calls  SetupTime  SolveTime SolveNodes       Sols       Best       Exp3  EpsGreedy        UCB TgtFixRate  Opt  Inf Node Stal  Sol  Usr Othr Actv
  rens             :          0       0.00       0.00          0          0          0    0.00000   -1.00000    1.00000      0.900    0    0    0    0    0    0    0    1
  rins             :          0       0.00       0.00          0          0          0    0.00000   -1.00000    1.00000      0.900    0    0    0    0    0    0    0    1
  mutation         :          0       0.00       0.00          0          0          0    0.00000   -1.00000    1.00000      0.900    0    0    0    0    0    0    0    1
  localbranching   :          0       0.00       0.00          0          0          0    0.00000   -1.00000    1.00000      0.900    0    0    0    0    0    0    0    1
  crossover        :          0       0.00       0.00          0          0          0    0.00000   -1.00000    1.00000      0.900    0    0    0    0    0    0    0    1
  proximity        :          0       0.00       0.00          0          0          0    0.00000   -1.00000    1.00000      0.900    0    0    0    0    0    0    0    1
  zeroobjective    :          0       0.00       0.00          0          0          0    0.00000   -1.00000    1.00000      0.900    0    0    0    0    0    0    0    1
  dins             :          0       0.00       0.00          0          0          0    0.00000   -1.00000    1.00000      0.900    0    0    0    0    0    0    0    1
LP                 :       Time      Calls Iterations  Iter/call   Iter/sec  Time-0-It Calls-0-It    ItLimit
  primal LP        :     196.92          3          0       0.00       0.00     196.92          3
  dual LP          :    3046.15         32     170595    5331.09      56.00       0.00          0
  lex dual LP      :       0.00          0          0       0.00          -
  barrier LP       :       0.00          0          0       0.00          -       0.00          0
  resolve instable :       0.00          0          0       0.00          -
  diving/probing LP:    3443.42         94      65133     692.90      18.92
  strong branching :       0.00          0          0       0.00          -          -          -          0
    (at root node) :          -          0          0       0.00          -
  conflict analysis:       0.00          0          0       0.00          -
B&B Tree           :
  number of runs   :          1
  nodes            :          1 (1 internal, 0 leaves)
  feasible leaves  :          0
  infeas. leaves   :          0
  objective leaves :          0
  nodes (total)    :          1 (1 internal, 0 leaves)
  nodes left       :          2
  max depth        :          0
  max depth (total):          0
  backtracks       :          0 (0.0%)
  early backtracks :          0 (0.0%)
  nodes exc. ref.  :          0 (0.0%)
  delayed cutoffs  :          0
  repropagations   :          0 (0 domain reductions, 0 cutoffs)
  avg switch length:       1.00
  switching time   :       0.00
Root Node          :
  First LP value   : +0.00000000000000e+00
  First LP Iters   :       3895 (808.09 Iter/sec)
  First LP Time    :       4.82
  Final Dual Bound : +6.70599735950723e-01
  Final Root Iters :     191887
  Root LP Estimate :                     -
Solution           :
  Solutions found  :          0 (0 improvements)
  Primal Bound     :          -
  Dual Bound       : +6.70599735950723e-01
  Gap              :   infinite
  Avg. Gap         :     100.00 % (720008.00 primal-dual integral)
  Tree Data        : 3 nodes (1 visited, 1 inner, 0 leaves, 2 open), progress: 0.0000
Tree Estimation    :       estim       value       trend  resolution      smooth
  wbe              :          -1           -           -           -           -
  tree profile     :          -1           -           -           -           -
  gap              :          -1     0.00000 999999999999999967336168804116691273849533185806555472917961779471295845921727862608739868455469056.00000           1 999999999999999967336168804116691273849533185806555472917961779471295845921727862608739868455469056
  progress         :          -1     0.00000 999999999999999967336168804116691273849533185806555472917961779471295845921727862608739868455469056.00000           1 999999999999999967336168804116691273849533185806555472917961779471295845921727862608739868455469056
  leaf-frequency   :          -1    -0.50000 999999999999999967336168804116691273849533185806555472917961779471295845921727862608739868455469056.00000           1 999999999999999967336168804116691273849533185806555472917961779471295845921727862608739868455469056
  ssg              :          -1     1.00000 999999999999999967336168804116691273849533185806555472917961779471295845921727862608739868455469056.00000           1 999999999999999967336168804116691273849533185806555472917961779471295845921727862608739868455469056
  open-nodes       :          -1     0.00000 999999999999999967336168804116691273849533185806555472917961779471295845921727862608739868455469056.00000           1 999999999999999967336168804116691273849533185806555472917961779471295845921727862608739868455469056

@04 1566501645
-----------------------------
Do 22. Aug 21:20:45 CEST 2019
-----------------------------

=ready=
